c CNF Encoding of Einstein's Puzzle
p cnf 125 639
1 2 3 4 5 0
-1 -6 0
-1 -11 0
-1 -16 0
-1 -21 0
-2 -1 0
-2 -7 0
-2 -12 0
-2 -17 0
-2 -22 0
-3 -1 0
-3 -2 0
-3 -8 0
-3 -13 0
-3 -18 0
-3 -23 0
-4 -1 0
-4 -2 0
-4 -3 0
-4 -9 0
-4 -14 0
-4 -19 0
-4 -24 0
-5 -1 0
-5 -2 0
-5 -3 0
-5 -4 0
-5 -10 0
-5 -15 0
-5 -20 0
-5 -25 0
6 7 8 9 10 0
-6 -11 0
-6 -16 0
-6 -21 0
-7 -6 0
-7 -12 0
-7 -17 0
-7 -22 0
-8 -6 0
-8 -7 0
-8 -13 0
-8 -18 0
-8 -23 0
-9 -6 0
-9 -7 0
-9 -8 0
-9 -14 0
-9 -19 0
-9 -24 0
-10 -6 0
-10 -7 0
-10 -8 0
-10 -9 0
-10 -15 0
-10 -20 0
-10 -25 0
11 12 13 14 15 0
-11 -16 0
-11 -21 0
-12 -11 0
-12 -17 0
-12 -22 0
-13 -11 0
-13 -12 0
-13 -18 0
-13 -23 0
-14 -11 0
-14 -12 0
-14 -13 0
-14 -19 0
-14 -24 0
-15 -11 0
-15 -12 0
-15 -13 0
-15 -14 0
-15 -20 0
-15 -25 0
16 17 18 19 20 0
-16 -21 0
-17 -16 0
-17 -22 0
-18 -16 0
-18 -17 0
-18 -23 0
-19 -16 0
-19 -17 0
-19 -18 0
-19 -24 0
-20 -16 0
-20 -17 0
-20 -18 0
-20 -19 0
-20 -25 0
21 22 23 24 25 0
-22 -21 0
-23 -21 0
-23 -22 0
-24 -21 0
-24 -22 0
-24 -23 0
-25 -21 0
-25 -22 0
-25 -23 0
-25 -24 0
26 27 28 29 30 0
-26 -31 0
-26 -36 0
-26 -41 0
-26 -46 0
-27 -26 0
-27 -32 0
-27 -37 0
-27 -42 0
-27 -47 0
-28 -26 0
-28 -27 0
-28 -33 0
-28 -38 0
-28 -43 0
-28 -48 0
-29 -26 0
-29 -27 0
-29 -28 0
-29 -34 0
-29 -39 0
-29 -44 0
-29 -49 0
-30 -26 0
-30 -27 0
-30 -28 0
-30 -29 0
-30 -35 0
-30 -40 0
-30 -45 0
-30 -50 0
31 32 33 34 35 0
-31 -36 0
-31 -41 0
-31 -46 0
-32 -31 0
-32 -37 0
-32 -42 0
-32 -47 0
-33 -31 0
-33 -32 0
-33 -38 0
-33 -43 0
-33 -48 0
-34 -31 0
-34 -32 0
-34 -33 0
-34 -39 0
-34 -44 0
-34 -49 0
-35 -31 0
-35 -32 0
-35 -33 0
-35 -34 0
-35 -40 0
-35 -45 0
-35 -50 0
36 37 38 39 40 0
-36 -41 0
-36 -46 0
-37 -36 0
-37 -42 0
-37 -47 0
-38 -36 0
-38 -37 0
-38 -43 0
-38 -48 0
-39 -36 0
-39 -37 0
-39 -38 0
-39 -44 0
-39 -49 0
-40 -36 0
-40 -37 0
-40 -38 0
-40 -39 0
-40 -45 0
-40 -50 0
41 42 43 44 45 0
-41 -46 0
-42 -41 0
-42 -47 0
-43 -41 0
-43 -42 0
-43 -48 0
-44 -41 0
-44 -42 0
-44 -43 0
-44 -49 0
-45 -41 0
-45 -42 0
-45 -43 0
-45 -44 0
-45 -50 0
46 47 48 49 50 0
-47 -46 0
-48 -46 0
-48 -47 0
-49 -46 0
-49 -47 0
-49 -48 0
-50 -46 0
-50 -47 0
-50 -48 0
-50 -49 0
51 52 53 54 55 0
-51 -56 0
-51 -61 0
-51 -66 0
-51 -71 0
-52 -51 0
-52 -57 0
-52 -62 0
-52 -67 0
-52 -72 0
-53 -51 0
-53 -52 0
-53 -58 0
-53 -63 0
-53 -68 0
-53 -73 0
-54 -51 0
-54 -52 0
-54 -53 0
-54 -59 0
-54 -64 0
-54 -69 0
-54 -74 0
-55 -51 0
-55 -52 0
-55 -53 0
-55 -54 0
-55 -60 0
-55 -65 0
-55 -70 0
-55 -75 0
56 57 58 59 60 0
-56 -61 0
-56 -66 0
-56 -71 0
-57 -56 0
-57 -62 0
-57 -67 0
-57 -72 0
-58 -56 0
-58 -57 0
-58 -63 0
-58 -68 0
-58 -73 0
-59 -56 0
-59 -57 0
-59 -58 0
-59 -64 0
-59 -69 0
-59 -74 0
-60 -56 0
-60 -57 0
-60 -58 0
-60 -59 0
-60 -65 0
-60 -70 0
-60 -75 0
61 62 63 64 65 0
-61 -66 0
-61 -71 0
-62 -61 0
-62 -67 0
-62 -72 0
-63 -61 0
-63 -62 0
-63 -68 0
-63 -73 0
-64 -61 0
-64 -62 0
-64 -63 0
-64 -69 0
-64 -74 0
-65 -61 0
-65 -62 0
-65 -63 0
-65 -64 0
-65 -70 0
-65 -75 0
66 67 68 69 70 0
-66 -71 0
-67 -66 0
-67 -72 0
-68 -66 0
-68 -67 0
-68 -73 0
-69 -66 0
-69 -67 0
-69 -68 0
-69 -74 0
-70 -66 0
-70 -67 0
-70 -68 0
-70 -69 0
-70 -75 0
71 72 73 74 75 0
-72 -71 0
-73 -71 0
-73 -72 0
-74 -71 0
-74 -72 0
-74 -73 0
-75 -71 0
-75 -72 0
-75 -73 0
-75 -74 0
76 77 78 79 80 0
-76 -81 0
-76 -86 0
-76 -91 0
-76 -96 0
-77 -76 0
-77 -82 0
-77 -87 0
-77 -92 0
-77 -97 0
-78 -76 0
-78 -77 0
-78 -83 0
-78 -88 0
-78 -93 0
-78 -98 0
-79 -76 0
-79 -77 0
-79 -78 0
-79 -84 0
-79 -89 0
-79 -94 0
-79 -99 0
-80 -76 0
-80 -77 0
-80 -78 0
-80 -79 0
-80 -85 0
-80 -90 0
-80 -95 0
-80 -100 0
81 82 83 84 85 0
-81 -86 0
-81 -91 0
-81 -96 0
-82 -81 0
-82 -87 0
-82 -92 0
-82 -97 0
-83 -81 0
-83 -82 0
-83 -88 0
-83 -93 0
-83 -98 0
-84 -81 0
-84 -82 0
-84 -83 0
-84 -89 0
-84 -94 0
-84 -99 0
-85 -81 0
-85 -82 0
-85 -83 0
-85 -84 0
-85 -90 0
-85 -95 0
-85 -100 0
86 87 88 89 90 0
-86 -91 0
-86 -96 0
-87 -86 0
-87 -92 0
-87 -97 0
-88 -86 0
-88 -87 0
-88 -93 0
-88 -98 0
-89 -86 0
-89 -87 0
-89 -88 0
-89 -94 0
-89 -99 0
-90 -86 0
-90 -87 0
-90 -88 0
-90 -89 0
-90 -95 0
-90 -100 0
91 92 93 94 95 0
-91 -96 0
-92 -91 0
-92 -97 0
-93 -91 0
-93 -92 0
-93 -98 0
-94 -91 0
-94 -92 0
-94 -93 0
-94 -99 0
-95 -91 0
-95 -92 0
-95 -93 0
-95 -94 0
-95 -100 0
96 97 98 99 100 0
-97 -96 0
-98 -96 0
-98 -97 0
-99 -96 0
-99 -97 0
-99 -98 0
-100 -96 0
-100 -97 0
-100 -98 0
-100 -99 0
101 102 103 104 105 0
-101 -106 0
-101 -111 0
-101 -116 0
-101 -121 0
-102 -101 0
-102 -107 0
-102 -112 0
-102 -117 0
-102 -122 0
-103 -101 0
-103 -102 0
-103 -108 0
-103 -113 0
-103 -118 0
-103 -123 0
-104 -101 0
-104 -102 0
-104 -103 0
-104 -109 0
-104 -114 0
-104 -119 0
-104 -124 0
-105 -101 0
-105 -102 0
-105 -103 0
-105 -104 0
-105 -110 0
-105 -115 0
-105 -120 0
-105 -125 0
106 107 108 109 110 0
-106 -111 0
-106 -116 0
-106 -121 0
-107 -106 0
-107 -112 0
-107 -117 0
-107 -122 0
-108 -106 0
-108 -107 0
-108 -113 0
-108 -118 0
-108 -123 0
-109 -106 0
-109 -107 0
-109 -108 0
-109 -114 0
-109 -119 0
-109 -124 0
-110 -106 0
-110 -107 0
-110 -108 0
-110 -109 0
-110 -115 0
-110 -120 0
-110 -125 0
111 112 113 114 115 0
-111 -116 0
-111 -121 0
-112 -111 0
-112 -117 0
-112 -122 0
-113 -111 0
-113 -112 0
-113 -118 0
-113 -123 0
-114 -111 0
-114 -112 0
-114 -113 0
-114 -119 0
-114 -124 0
-115 -111 0
-115 -112 0
-115 -113 0
-115 -114 0
-115 -120 0
-115 -125 0
116 117 118 119 120 0
-116 -121 0
-117 -116 0
-117 -122 0
-118 -116 0
-118 -117 0
-118 -123 0
-119 -116 0
-119 -117 0
-119 -118 0
-119 -124 0
-120 -116 0
-120 -117 0
-120 -118 0
-120 -119 0
-120 -125 0
121 122 123 124 125 0
-122 -121 0
-123 -121 0
-123 -122 0
-124 -121 0
-124 -122 0
-124 -123 0
-125 -121 0
-125 -122 0
-125 -123 0
-125 -124 0
-26 1 0
26 -1 0
-27 2 0
27 -2 0
-28 3 0
28 -3 0
-29 4 0
29 -4 0
-30 5 0
30 -5 0
-31 51 0
31 -51 0
-32 52 0
32 -52 0
-33 53 0
33 -53 0
-34 54 0
34 -54 0
-35 55 0
35 -55 0
-36 91 0
36 -91 0
-37 92 0
37 -92 0
-38 93 0
38 -93 0
-39 94 0
39 -94 0
-40 95 0
40 -95 0
-6 96 0
6 -96 0
-7 97 0
7 -97 0
-8 98 0
8 -98 0
-9 99 0
9 -99 0
-10 100 0
10 -100 0
-101 66 0
101 -66 0
-102 67 0
102 -67 0
-103 68 0
103 -68 0
-104 69 0
104 -69 0
-105 70 0
105 -70 0
-16 121 0
16 -121 0
-17 122 0
17 -122 0
-18 123 0
18 -123 0
-19 124 0
19 -124 0
-20 125 0
20 -125 0
-106 86 0
106 -86 0
-107 87 0
107 -87 0
-108 88 0
108 -88 0
-109 89 0
109 -89 0
-110 90 0
110 -90 0
-41 111 0
41 -111 0
-42 112 0
42 -112 0
-43 113 0
43 -113 0
-44 114 0
44 -114 0
-45 115 0
45 -115 0
-116 62 0
-120 64 0
-117 61 63 0
-118 62 64 0
-119 63 65 0
-56 122 0
-60 124 0
-57 121 123 0
-58 122 124 0
-59 123 125 0
-116 77 0
-120 79 0
-117 76 78 0
-118 77 79 0
-119 78 80 0
83 0
46 0
22 0
-11 -7 0
-11 -8 0
-11 -9 0
-11 -10 0
-12 -8 0
-12 -9 0
-12 -10 0
-13 -6 0
-13 -9 0
-13 -10 0
-14 -6 0
-14 -7 0
-14 -10 0
-15 -6 0
-15 -7 0
-15 -8 0